33D32945 STP File, STP Format Version 1.0

SECTION Comment
Name    "i160-341"
Creator "Cees Duin"
Remark  "Incidence graph"
END

SECTION Graph
Nodes 160
Edges 2544
E 1 3 288
E 1 9 301
E 1 16 301
E 1 17 292
E 1 26 305
E 1 33 306
E 1 36 297
E 1 43 198
E 1 47 204
E 1 49 200
E 1 60 195
E 1 61 196
E 1 67 198
E 1 72 199
E 1 75 196
E 1 77 205
E 1 78 205
E 1 79 196
E 1 86 207
E 1 87 209
E 1 90 198
E 1 91 200
E 1 92 203
E 1 94 203
E 1 95 202
E 1 97 197
E 1 103 204
E 1 118 197
E 1 123 204
E 1 128 201
E 1 130 194
E 1 139 193
E 1 140 209
E 1 142 203
E 1 145 197
E 1 146 191
E 1 147 197
E 1 149 200
E 1 159 201
E 2 5 298
E 2 9 300
E 2 10 298
E 2 16 297
E 2 19 305
E 2 22 302
E 2 24 309
E 2 28 297
E 2 36 301
E 2 39 303
E 2 42 199
E 2 44 201
E 2 46 197
E 2 49 208
E 2 52 194
E 2 54 200
E 2 58 203
E 2 61 196
E 2 62 203
E 2 64 202
E 2 67 188
E 2 77 200
E 2 81 200
E 2 83 198
E 2 85 196
E 2 87 202
E 2 92 200
E 2 93 205
E 2 95 206
E 2 99 203
E 2 101 205
E 2 110 199
E 2 111 196
E 2 135 203
E 2 138 207
E 2 144 192
E 2 151 196
E 2 153 190
E 3 14 307
E 3 20 297
E 3 21 293
E 3 28 302
E 3 37 301
E 3 42 196
E 3 54 202
E 3 55 201
E 3 56 209
E 3 61 200
E 3 81 201
E 3 95 199
E 3 98 211
E 3 103 201
E 3 105 196
E 3 109 199
E 3 111 196
E 3 118 203
E 3 126 199
E 3 131 196
E 3 134 205
E 3 141 197
E 3 149 184
E 3 155 196
E 4 6 297
E 4 7 301
E 4 14 300
E 4 29 305
E 4 47 198
E 4 50 191
E 4 60 194
E 4 63 193
E 4 66 204
E 4 68 198
E 4 72 217
E 4 74 205
E 4 89 207
E 4 95 203
E 4 97 206
E 4 102 199
E 4 112 198
E 4 114 195
E 4 117 201
E 4 120 195
E 4 122 199
E 4 124 197
E 4 125 196
E 4 126 191
E 4 128 204
E 4 146 190
E 4 153 208
E 4 155 203
E 4 157 204
E 4 158 200
E 4 159 198
E 5 7 306
E 5 9 293
E 5 21 299
E 5 37 292
E 5 38 295
E 5 39 291
E 5 42 196
E 5 60 203
E 5 61 198
E 5 74 187
E 5 82 204
E 5 90 193
E 5 92 179
E 5 95 196
E 5 107 198
E 5 108 200
E 5 110 201
E 5 113 198
E 5 116 206
E 5 126 196
E 5 133 196
E 5 137 197
E 5 142 193
E 5 147 196
E 5 152 206
E 5 157 208
E 6 7 292
E 6 8 296
E 6 12 303
E 6 14 308
E 6 17 300
E 6 21 309
E 6 24 299
E 6 28 294
E 6 29 302
E 6 32 299
E 6 37 290
E 6 46 191
E 6 48 194
E 6 52 193
E 6 57 193
E 6 74 209
E 6 77 197
E 6 80 191
E 6 84 208
E 6 87 195
E 6 95 198
E 6 97 189
E 6 106 209
E 6 108 195
E 6 109 201
E 6 119 201
E 6 121 200
E 6 131 196
E 6 145 199
E 6 153 197
E 6 154 189
E 6 156 195
E 6 158 194
E 7 11 301
E 7 13 300
E 7 20 300
E 7 26 300
E 7 29 301
E 7 30 299
E 7 36 304
E 7 37 303
E 7 41 195
E 7 48 196
E 7 52 204
E 7 53 202
E 7 54 199
E 7 59 203
E 7 62 200
E 7 64 203
E 7 66 194
E 7 68 199
E 7 73 198
E 7 75 199
E 7 77 203
E 7 115 197
E 7 116 191
E 7 125 195
E 7 128 200
E 7 130 185
E 7 132 196
E 7 136 202
E 7 143 194
E 7 148 199
E 7 157 200
E 8 10 291
E 8 11 299
E 8 22 298
E 8 30 296
E 8 33 306
E 8 34 293
E 8 36 299
E 8 38 293
E 8 43 193
E 8 64 194
E 8 70 197
E 8 86 203
E 8 92 206
E 8 96 208
E 8 98 199
E 8 99 204
E 8 103 198
E 8 104 204
E 8 107 197
E 8 109 202
E 8 125 211
E 8 126 194
E 8 128 199
E 8 135 199
E 8 146 207
E 8 147 194
E 8 148 202
E 8 150 208
E 8 152 194
E 9 11 306
E 9 14 301
E 9 16 306
E 9 20 310
E 9 22 302
E 9 26 300
E 9 28 297
E 9 29 306
E 9 32 292
E 9 33 296
E 9 40 303
E 9 41 203
E 9 43 197
E 9 44 199
E 9 51 198
E 9 54 204
E 9 57 189
E 9 66 207
E 9 67 203
E 9 70 200
E 9 88 197
E 9 90 203
E 9 92 203
E 9 93 198
E 9 95 199
E 9 112 199
E 9 113 207
E 9 115 201
E 9 116 206
E 9 122 190
E 9 127 200
E 9 128 207
E 9 130 196
E 9 131 193
E 9 136 194
E 9 137 196
E 9 138 194
E 9 141 200
E 9 146 204
E 9 147 202
E 9 152 201
E 9 158 199
E 10 15 301
E 10 23 301
E 10 26 298
E 10 30 297
E 10 35 300
E 10 36 294
E 10 39 299
E 10 45 198
E 10 50 201
E 10 52 193
E 10 54 193
E 10 62 203
E 10 93 200
E 10 94 200
E 10 96 206
E 10 101 207
E 10 110 200
E 10 122 205
E 10 125 191
E 10 126 205
E 10 131 213
E 10 134 201
E 10 142 198
E 10 148 199
E 10 159 189
E 10 160 196
E 11 20 294
E 11 23 295
E 11 28 299
E 11 42 191
E 11 48 200
E 11 49 196
E 11 71 213
E 11 85 190
E 11 92 200
E 11 99 192
E 11 102 199
E 11 103 196
E 11 106 204
E 11 137 201
E 11 147 198
E 11 159 200
E 12 18 296
E 12 20 302
E 12 25 301
E 12 54 202
E 12 55 196
E 12 56 197
E 12 59 197
E 12 67 195
E 12 68 198
E 12 73 206
E 12 82 184
E 12 86 207
E 12 93 199
E 12 98 201
E 12 112 201
E 12 113 210
E 12 121 198
E 12 129 197
E 12 130 201
E 12 134 200
E 12 142 198
E 12 144 198
E 12 149 197
E 12 150 198
E 12 152 193
E 12 155 195
E 13 18 298
E 13 19 292
E 13 25 303
E 13 27 293
E 13 28 301
E 13 33 309
E 13 34 300
E 13 38 306
E 13 44 198
E 13 61 196
E 13 70 204
E 13 78 203
E 13 79 194
E 13 90 191
E 13 92 193
E 13 94 192
E 13 95 195
E 13 101 193
E 13 104 200
E 13 105 191
E 13 109 201
E 13 110 208
E 13 114 195
E 13 119 209
E 13 122 209
E 13 125 198
E 13 130 196
E 13 131 201
E 13 136 204
E 13 142 192
E 13 144 205
E 13 150 194
E 14 19 300
E 14 20 300
E 14 23 306
E 14 26 306
E 14 27 307
E 14 51 198
E 14 53 198
E 14 58 209
E 14 59 199
E 14 75 203
E 14 76 210
E 14 77 196
E 14 87 196
E 14 88 198
E 14 100 199
E 14 102 199
E 14 108 202
E 14 117 203
E 14 118 202
E 14 119 208
E 14 125 201
E 14 132 208
E 14 135 193
E 14 139 197
E 14 149 200
E 15 26 296
E 15 31 300
E 15 33 289
E 15 35 307
E 15 39 294
E 15 41 198
E 15 43 206
E 15 45 200
E 15 49 202
E 15 56 195
E 15 67 202
E 15 70 202
E 15 74 203
E 15 76 202
E 15 83 205
E 15 86 198
E 15 88 204
E 15 90 198
E 15 95 206
E 15 97 204
E 15 99 194
E 15 106 198
E 15 107 195
E 15 110 196
E 15 113 201
E 15 114 192
E 15 115 200
E 15 119 189
E 15 127 203
E 15 129 197
E 15 137 189
E 15 140 209
E 15 147 203
E 16 25 294
E 16 39 299
E 16 48 201
E 16 60 192
E 16 61 204
E 16 66 205
E 16 70 204
E 16 72 209
E 16 78 202
E 16 80 201
E 16 84 195
E 16 86 200
E 16 92 203
E 16 99 196
E 16 102 195
E 16 106 200
E 16 110 192
E 16 112 205
E 16 121 196
E 16 122 203
E 16 123 201
E 16 125 191
E 16 129 201
E 16 130 198
E 16 136 193
E 16 140 204
E 16 142 199
E 16 148 202
E 16 151 200
E 16 153 198
E 16 155 201
E 16 160 205
E 17 22 300
E 17 24 307
E 17 26 293
E 17 28 295
E 17 33 308
E 17 39 298
E 17 45 198
E 17 46 201
E 17 49 202
E 17 64 202
E 17 65 196
E 17 75 204
E 17 82 201
E 17 83 204
E 17 89 199
E 17 92 196
E 17 93 204
E 17 100 193
E 17 106 194
E 17 114 195
E 17 121 197
E 17 134 200
E 17 135 196
E 17 136 201
E 17 145 205
E 17 148 200
E 17 149 210
E 17 151 196
E 17 154 197
E 17 156 203
E 18 19 299
E 18 20 299
E 18 26 305
E 18 28 303
E 18 33 297
E 18 43 205
E 18 50 200
E 18 61 196
E 18 62 193
E 18 65 200
E 18 67 198
E 18 69 195
E 18 70 189
E 18 71 203
E 18 76 198
E 18 86 195
E 18 90 194
E 18 95 198
E 18 99 203
E 18 101 206
E 18 103 193
E 18 106 199
E 18 107 195
E 18 111 195
E 18 136 191
E 18 137 201
E 18 139 202
E 18 140 196
E 18 144 194
E 18 145 201
E 18 151 211
E 18 157 202
E 19 22 294
E 19 29 301
E 19 33 298
E 19 34 293
E 19 40 293
E 19 55 194
E 19 56 197
E 19 57 208
E 19 60 208
E 19 61 206
E 19 71 198
E 19 74 203
E 19 81 196
E 19 87 198
E 19 88 197
E 19 90 196
E 19 93 210
E 19 98 199
E 19 99 200
E 19 101 202
E 19 108 196
E 19 122 192
E 19 124 196
E 19 125 208
E 19 137 198
E 19 141 198
E 19 145 191
E 19 148 196
E 19 150 199
E 19 156 199
E 19 158 207
E 20 21 298
E 20 22 293
E 20 25 301
E 20 28 303
E 20 30 298
E 20 37 300
E 20 41 193
E 20 46 201
E 20 49 198
E 20 58 196
E 20 81 191
E 20 96 204
E 20 98 195
E 20 99 199
E 20 102 201
E 20 110 189
E 20 118 197
E 20 122 201
E 20 124 202
E 20 129 205
E 20 131 199
E 20 133 196
E 20 134 194
E 20 139 200
E 20 144 208
E 20 151 203
E 21 24 295
E 21 25 291
E 21 34 303
E 21 41 198
E 21 43 199
E 21 55 194
E 21 59 197
E 21 61 200
E 21 62 196
E 21 64 191
E 21 70 197
E 21 75 203
E 21 82 195
E 21 84 203
E 21 89 203
E 21 92 200
E 21 101 200
E 21 102 190
E 21 106 200
E 21 120 204
E 21 121 202
E 21 126 192
E 21 132 198
E 21 133 204
E 21 134 201
E 21 140 196
E 21 142 196
E 21 145 199
E 21 147 200
E 21 150 191
E 21 151 192
E 21 152 196
E 21 155 211
E 21 156 205
E 21 159 196
E 22 31 303
E 22 44 203
E 22 50 209
E 22 54 198
E 22 56 199
E 22 60 212
E 22 66 188
E 22 67 203
E 22 68 208
E 22 87 205
E 22 94 194
E 22 99 198
E 22 100 195
E 22 101 192
E 22 103 199
E 22 104 193
E 22 107 203
E 22 118 190
E 22 123 199
E 22 134 192
E 22 147 202
E 22 150 203
E 22 156 202
E 22 157 200
E 23 26 303
E 23 28 290
E 23 37 309
E 23 44 193
E 23 48 194
E 23 51 201
E 23 64 195
E 23 65 196
E 23 66 197
E 23 68 197
E 23 83 202
E 23 85 197
E 23 90 197
E 23 91 188
E 23 92 190
E 23 106 199
E 23 111 199
E 23 114 201
E 23 121 202
E 23 123 204
E 23 129 196
E 23 130 195
E 23 133 196
E 23 138 191
E 23 139 204
E 23 141 203
E 23 142 203
E 23 143 196
E 23 154 202
E 24 25 296
E 24 32 297
E 24 33 301
E 24 36 302
E 24 37 304
E 24 40 311
E 24 43 201
E 24 45 201
E 24 50 198
E 24 53 203
E 24 56 201
E 24 60 194
E 24 77 201
E 24 81 201
E 24 92 198
E 24 94 199
E 24 102 198
E 24 105 196
E 24 115 196
E 24 128 198
E 24 130 201
E 24 135 202
E 24 143 206
E 24 149 203
E 24 159 194
E 25 30 299
E 25 31 287
E 25 35 295
E 25 37 299
E 25 40 303
E 25 43 201
E 25 45 205
E 25 46 200
E 25 50 203
E 25 65 200
E 25 73 197
E 25 85 210
E 25 87 198
E 25 88 204
E 25 92 202
E 25 95 197
E 25 96 201
E 25 97 193
E 25 102 206
E 25 103 199
E 25 105 195
E 25 112 197
E 25 115 201
E 25 116 205
E 25 119 194
E 25 121 206
E 25 123 195
E 25 127 199
E 25 140 198
E 25 157 196
E 26 28 301
E 26 47 200
E 26 56 195
E 26 57 202
E 26 62 199
E 26 66 197
E 26 73 195
E 26 79 201
E 26 90 203
E 26 92 201
E 26 98 193
E 26 101 197
E 26 104 201
E 26 110 198
E 26 116 197
E 26 121 202
E 26 131 212
E 26 137 194
E 26 152 200
E 26 157 201
E 27 32 306
E 27 40 303
E 27 58 188
E 27 61 203
E 27 72 204
E 27 76 193
E 27 80 199
E 27 85 187
E 27 87 206
E 27 90 197
E 27 94 202
E 27 95 208
E 27 100 198
E 27 102 195
E 27 105 209
E 27 109 204
E 27 111 202
E 27 114 192
E 27 115 202
E 27 116 202
E 27 124 207
E 27 129 200
E 27 134 198
E 27 137 199
E 27 144 198
E 27 146 198
E 27 147 196
E 27 148 202
E 27 151 198
E 27 153 196
E 27 154 200
E 27 160 197
E 28 34 299
E 28 48 198
E 28 50 196
E 28 54 201
E 28 56 202
E 28 58 200
E 28 59 211
E 28 62 206
E 28 63 201
E 28 67 191
E 28 69 199
E 28 72 204
E 28 76 200
E 28 79 194
E 28 88 206
E 28 92 198
E 28 103 195
E 28 109 204
E 28 124 198
E 28 126 202
E 28 128 204
E 28 130 201
E 28 131 202
E 28 133 197
E 28 136 212
E 28 141 202
E 28 151 206
E 28 153 202
E 29 39 300
E 29 45 196
E 29 49 199
E 29 67 195
E 29 77 207
E 29 78 201
E 29 83 206
E 29 86 204
E 29 88 201
E 29 110 199
E 29 111 207
E 29 126 199
E 29 127 199
E 29 131 199
E 29 137 200
E 29 138 198
E 29 143 205
E 29 152 198
E 29 160 204
E 30 31 297
E 30 34 303
E 30 36 287
E 30 41 202
E 30 46 197
E 30 52 198
E 30 54 204
E 30 62 203
E 30 79 194
E 30 86 205
E 30 90 197
E 30 91 203
E 30 107 200
E 30 108 198
E 30 111 195
E 30 112 198
E 30 116 195
E 30 124 197
E 30 125 201
E 30 132 195
E 30 133 205
E 30 135 204
E 30 138 200
E 30 141 188
E 30 145 199
E 30 153 197
E 30 157 200
E 30 160 199
E 31 33 303
E 31 36 301
E 31 47 216
E 31 54 208
E 31 57 206
E 31 59 192
E 31 63 201
E 31 68 198
E 31 69 200
E 31 73 192
E 31 86 203
E 31 91 202
E 31 100 204
E 31 109 195
E 31 115 201
E 31 117 195
E 31 118 200
E 31 130 207
E 31 141 189
E 31 144 202
E 31 147 205
E 31 150 196
E 31 159 208
E 32 36 297
E 32 40 287
E 32 46 198
E 32 47 200
E 32 54 201
E 32 55 206
E 32 58 204
E 32 60 198
E 32 63 195
E 32 65 196
E 32 67 204
E 32 69 194
E 32 72 200
E 32 76 198
E 32 85 201
E 32 86 200
E 32 93 195
E 32 98 202
E 32 102 197
E 32 103 190
E 32 106 194
E 32 116 201
E 32 117 198
E 32 123 204
E 32 124 206
E 32 131 200
E 32 138 193
E 32 147 189
E 33 34 303
E 33 38 303
E 33 41 197
E 33 45 199
E 33 48 204
E 33 68 202
E 33 79 205
E 33 81 201
E 33 97 210
E 33 102 193
E 33 117 200
E 33 146 213
E 33 153 193
E 33 159 197
E 33 160 206
E 34 36 302
E 34 40 301
E 34 41 196
E 34 52 198
E 34 54 193
E 34 61 194
E 34 62 197
E 34 67 199
E 34 69 197
E 34 79 209
E 34 88 193
E 34 89 196
E 34 91 189
E 34 95 203
E 34 97 209
E 34 105 204
E 34 110 198
E 34 116 209
E 34 127 195
E 34 133 197
E 34 134 207
E 34 143 204
E 34 157 191
E 34 160 200
E 35 50 205
E 35 74 190
E 35 87 200
E 35 90 201
E 35 98 205
E 35 112 203
E 35 114 199
E 35 117 203
E 35 123 204
E 35 144 204
E 36 49 205
E 36 61 202
E 36 62 209
E 36 64 202
E 36 67 201
E 36 70 196
E 36 72 199
E 36 75 209
E 36 82 195
E 36 84 200
E 36 87 207
E 36 93 195
E 36 94 197
E 36 98 193
E 36 107 195
E 36 121 194
E 36 129 194
E 36 131 192
E 36 149 208
E 36 155 203
E 36 156 203
E 37 45 200
E 37 47 203
E 37 53 201
E 37 59 198
E 37 60 197
E 37 69 193
E 37 74 208
E 37 76 204
E 37 83 195
E 37 89 201
E 37 93 198
E 37 106 188
E 37 110 190
E 37 112 196
E 37 115 198
E 37 121 195
E 37 133 195
E 37 140 202
E 37 151 201
E 37 153 200
E 38 42 204
E 38 48 201
E 38 53 201
E 38 54 185
E 38 61 206
E 38 62 198
E 38 67 192
E 38 72 195
E 38 76 211
E 38 78 193
E 38 79 201
E 38 83 202
E 38 101 198
E 38 104 200
E 38 105 199
E 38 113 192
E 38 126 206
E 38 127 199
E 38 129 200
E 38 134 207
E 38 137 205
E 38 142 194
E 38 144 191
E 38 158 198
E 39 44 193
E 39 46 195
E 39 50 201
E 39 52 192
E 39 55 204
E 39 56 208
E 39 62 199
E 39 68 200
E 39 77 197
E 39 79 201
E 39 86 197
E 39 98 199
E 39 105 199
E 39 115 192
E 39 118 195
E 39 122 207
E 39 126 205
E 39 129 199
E 39 131 200
E 39 140 197
E 39 147 201
E 39 157 198
E 40 41 209
E 40 45 204
E 40 56 201
E 40 81 204
E 40 90 191
E 40 93 206
E 40 99 207
E 40 100 203
E 40 122 199
E 40 127 198
E 40 133 196
E 40 145 198
E 40 148 202
E 40 152 203
E 40 153 205
E 40 156 200
E 41 48 97
E 41 70 92
E 41 73 105
E 41 75 89
E 41 81 100
E 41 84 104
E 41 87 101
E 41 89 105
E 41 101 98
E 41 102 100
E 41 112 96
E 41 116 101
E 41 123 94
E 41 124 94
E 41 131 99
E 41 132 92
E 41 141 93
E 41 143 105
E 41 149 97
E 42 43 98
E 42 44 102
E 42 48 95
E 42 54 108
E 42 60 108
E 42 65 103
E 42 67 94
E 42 70 107
E 42 79 109
E 42 82 99
E 42 84 101
E 42 86 110
E 42 89 98
E 42 102 104
E 42 104 102
E 42 115 103
E 42 116 103
E 42 117 96
E 42 126 99
E 42 130 96
E 42 133 93
E 42 137 95
E 42 138 102
E 42 140 99
E 42 157 94
E 43 48 107
E 43 50 107
E 43 52 91
E 43 59 104
E 43 66 96
E 43 75 102
E 43 79 91
E 43 80 104
E 43 85 106
E 43 96 113
E 43 99 93
E 43 101 99
E 43 103 102
E 43 114 103
E 43 116 102
E 43 119 103
E 43 121 94
E 43 143 97
E 43 150 100
E 43 152 107
E 43 154 108
E 43 157 106
E 44 49 100
E 44 53 102
E 44 55 100
E 44 56 98
E 44 60 91
E 44 61 98
E 44 64 99
E 44 68 95
E 44 70 99
E 44 79 100
E 44 80 97
E 44 84 105
E 44 87 93
E 44 91 91
E 44 102 107
E 44 104 100
E 44 105 91
E 44 119 96
E 44 126 104
E 44 129 88
E 44 131 94
E 44 132 94
E 44 138 93
E 44 140 91
E 44 149 98
E 44 159 97
E 44 160 93
E 45 47 99
E 45 52 101
E 45 60 100
E 45 70 103
E 45 73 101
E 45 74 94
E 45 79 108
E 45 80 100
E 45 82 94
E 45 87 94
E 45 89 98
E 45 97 99
E 45 99 101
E 45 101 100
E 45 105 100
E 45 108 88
E 45 116 96
E 45 119 94
E 45 121 102
E 45 127 91
E 45 129 100
E 45 130 92
E 45 141 97
E 45 147 101
E 45 160 100
E 46 53 107
E 46 57 100
E 46 70 101
E 46 73 94
E 46 76 94
E 46 81 102
E 46 85 93
E 46 90 95
E 46 95 110
E 46 97 101
E 46 106 101
E 46 107 95
E 46 114 95
E 46 117 82
E 46 118 100
E 46 121 103
E 46 123 99
E 46 127 104
E 46 131 100
E 46 135 100
E 46 140 99
E 46 148 99
E 46 149 105
E 46 156 103
E 46 158 99
E 47 48 98
E 47 53 100
E 47 61 95
E 47 72 96
E 47 73 95
E 47 80 106
E 47 81 90
E 47 84 111
E 47 92 98
E 47 94 94
E 47 97 101
E 47 101 104
E 47 102 104
E 47 104 102
E 47 106 97
E 47 112 107
E 47 122 89
E 47 125 101
E 47 129 95
E 47 130 106
E 47 138 94
E 47 139 103
E 47 152 93
E 48 57 97
E 48 65 107
E 48 66 105
E 48 79 99
E 48 86 99
E 48 89 108
E 48 97 94
E 48 102 101
E 48 103 93
E 48 109 94
E 48 119 101
E 48 121 98
E 48 130 101
E 48 132 102
E 48 137 99
E 48 143 95
E 48 146 99
E 48 148 99
E 48 150 97
E 48 158 102
E 49 60 104
E 49 66 87
E 49 75 96
E 49 80 103
E 49 85 99
E 49 86 99
E 49 87 97
E 49 88 99
E 49 89 95
E 49 91 103
E 49 96 99
E 49 108 102
E 49 109 94
E 49 129 92
E 49 130 100
E 49 133 103
E 49 148 99
E 49 150 100
E 49 156 101
E 50 63 96
E 50 70 100
E 50 71 91
E 50 73 95
E 50 74 97
E 50 75 99
E 50 76 102
E 50 78 97
E 50 79 105
E 50 88 101
E 50 101 103
E 50 104 106
E 50 105 93
E 50 110 92
E 50 111 108
E 50 118 110
E 50 119 97
E 50 123 99
E 50 129 102
E 50 130 95
E 50 135 98
E 50 136 98
E 50 142 92
E 50 146 99
E 50 149 98
E 50 151 93
E 50 157 93
E 51 52 96
E 51 58 105
E 51 60 105
E 51 62 101
E 51 67 104
E 51 70 98
E 51 79 98
E 51 85 97
E 51 88 94
E 51 90 104
E 51 92 104
E 51 120 104
E 51 127 96
E 51 129 91
E 51 133 107
E 51 136 95
E 51 137 102
E 51 140 106
E 51 144 101
E 51 149 91
E 51 158 104
E 51 160 99
E 52 54 98
E 52 63 107
E 52 76 94
E 52 82 94
E 52 85 100
E 52 91 102
E 52 99 94
E 52 101 102
E 52 111 101
E 52 113 95
E 52 119 99
E 52 129 100
E 52 133 92
E 52 143 99
E 52 148 97
E 52 151 107
E 53 55 97
E 53 56 104
E 53 61 98
E 53 68 106
E 53 75 103
E 53 82 101
E 53 90 96
E 53 93 104
E 53 102 99
E 53 104 103
E 53 115 85
E 53 117 96
E 53 126 96
E 53 131 101
E 53 133 104
E 53 144 106
E 53 152 97
E 53 159 102
E 54 61 110
E 54 62 101
E 54 76 98
E 54 77 96
E 54 79 102
E 54 80 102
E 54 85 91
E 54 90 102
E 54 103 94
E 54 110 103
E 54 115 90
E 54 119 97
E 54 129 102
E 54 146 100
E 54 148 94
E 54 153 94
E 54 154 103
E 54 156 97
E 54 158 102
E 55 56 101
E 55 62 96
E 55 67 105
E 55 78 99
E 55 79 101
E 55 84 98
E 55 85 98
E 55 91 108
E 55 112 101
E 55 122 103
E 55 125 98
E 55 126 107
E 55 128 106
E 55 129 96
E 55 130 99
E 55 133 104
E 55 144 101
E 55 145 100
E 55 147 107
E 55 148 106
E 55 149 105
E 55 153 98
E 55 155 101
E 55 157 109
E 55 160 96
E 56 59 92
E 56 67 104
E 56 68 91
E 56 78 106
E 56 84 93
E 56 101 97
E 56 103 94
E 56 109 104
E 56 113 92
E 56 114 96
E 56 116 100
E 56 118 100
E 56 123 107
E 56 126 107
E 56 130 103
E 56 133 88
E 56 139 94
E 56 141 105
E 56 142 103
E 56 146 103
E 56 152 100
E 56 154 102
E 56 156 95
E 57 58 95
E 57 71 105
E 57 74 106
E 57 77 99
E 57 81 99
E 57 86 105
E 57 87 90
E 57 88 100
E 57 92 100
E 57 95 99
E 57 96 102
E 57 98 103
E 57 105 105
E 57 114 89
E 57 122 98
E 57 126 96
E 57 130 102
E 57 134 98
E 57 136 101
E 57 137 98
E 57 138 113
E 57 140 103
E 57 144 96
E 57 152 97
E 57 155 103
E 57 158 101
E 57 160 97
E 58 59 88
E 58 60 106
E 58 61 102
E 58 67 100
E 58 69 102
E 58 70 94
E 58 76 107
E 58 83 91
E 58 90 100
E 58 94 94
E 58 96 102
E 58 110 96
E 58 111 94
E 58 116 98
E 58 118 102
E 58 124 99
E 58 131 94
E 58 144 98
E 58 145 101
E 58 147 104
E 58 148 92
E 58 149 98
E 58 157 94
E 59 60 104
E 59 61 109
E 59 66 92
E 59 69 104
E 59 72 110
E 59 73 93
E 59 74 97
E 59 75 96
E 59 85 104
E 59 87 105
E 59 88 92
E 59 91 92
E 59 95 100
E 59 102 101
E 59 104 96
E 59 112 100
E 59 117 96
E 59 121 108
E 59 125 113
E 59 126 98
E 59 130 89
E 59 138 107
E 59 139 99
E 59 141 102
E 59 148 100
E 59 149 89
E 59 152 98
E 59 155 103
E 60 61 104
E 60 63 96
E 60 65 100
E 60 75 100
E 60 80 97
E 60 82 100
E 60 112 101
E 60 116 99
E 60 121 105
E 60 124 101
E 61 68 100
E 61 76 97
E 61 77 103
E 61 88 104
E 61 90 108
E 61 113 100
E 61 124 96
E 61 125 96
E 61 132 96
E 61 143 97
E 61 145 100
E 61 147 95
E 61 149 92
E 61 154 100
E 61 156 102
E 61 160 100
E 62 64 89
E 62 72 93
E 62 73 94
E 62 74 96
E 62 77 99
E 62 83 99
E 62 86 93
E 62 87 101
E 62 97 100
E 62 108 102
E 62 111 99
E 62 121 108
E 62 125 106
E 62 130 94
E 62 138 93
E 62 140 98
E 62 146 99
E 63 64 99
E 63 66 97
E 63 68 103
E 63 73 104
E 63 80 98
E 63 81 101
E 63 84 104
E 63 95 107
E 63 101 107
E 63 110 107
E 63 113 95
E 63 116 98
E 63 119 98
E 63 120 99
E 63 122 96
E 63 126 104
E 63 132 97
E 63 133 98
E 63 142 104
E 63 145 93
E 63 148 92
E 63 151 91
E 63 158 98
E 63 159 108
E 64 67 97
E 64 70 98
E 64 74 89
E 64 79 94
E 64 83 100
E 64 92 100
E 64 93 109
E 64 96 96
E 64 117 97
E 64 118 97
E 64 119 100
E 64 127 106
E 64 142 101
E 64 159 93
E 64 160 103
E 65 66 96
E 65 70 97
E 65 80 109
E 65 82 103
E 65 87 101
E 65 91 105
E 65 101 95
E 65 108 99
E 65 110 95
E 65 113 102
E 65 115 94
E 65 127 100
E 65 128 105
E 65 134 91
E 65 135 112
E 65 139 99
E 65 145 87
E 65 155 100
E 65 160 108
E 66 70 97
E 66 71 98
E 66 73 100
E 66 74 93
E 66 75 100
E 66 85 109
E 66 92 105
E 66 102 97
E 66 109 101
E 66 124 100
E 66 128 90
E 66 130 110
E 66 137 100
E 66 142 97
E 66 150 94
E 66 153 91
E 66 154 101
E 66 158 106
E 66 160 100
E 67 72 95
E 67 73 98
E 67 78 90
E 67 88 99
E 67 90 101
E 67 99 107
E 67 111 100
E 67 119 94
E 67 126 93
E 67 130 109
E 67 133 93
E 67 134 95
E 67 137 106
E 67 142 97
E 67 144 99
E 67 146 101
E 67 151 98
E 67 156 102
E 67 158 106
E 67 160 98
E 68 82 106
E 68 84 109
E 68 85 100
E 68 86 106
E 68 91 102
E 68 96 95
E 68 100 106
E 68 101 102
E 68 105 103
E 68 106 107
E 68 114 98
E 68 122 106
E 68 134 95
E 68 138 92
E 68 145 94
E 68 153 99
E 68 158 98
E 69 70 103
E 69 80 102
E 69 97 91
E 69 98 95
E 69 112 102
E 69 122 100
E 69 123 105
E 69 133 94
E 69 135 100
E 69 144 101
E 69 146 94
E 69 150 94
E 69 151 102
E 69 155 96
E 69 159 93
E 70 72 92
E 70 77 104
E 70 90 107
E 70 92 97
E 70 96 90
E 70 103 104
E 70 104 101
E 70 108 101
E 70 109 104
E 70 116 102
E 70 124 106
E 70 125 99
E 70 138 101
E 70 148 103
E 70 151 98
E 70 159 103
E 71 72 104
E 71 74 93
E 71 76 101
E 71 78 104
E 71 81 106
E 71 82 107
E 71 85 96
E 71 86 103
E 71 87 93
E 71 88 104
E 71 89 97
E 71 94 103
E 71 98 97
E 71 103 100
E 71 105 91
E 71 107 102
E 71 110 92
E 71 117 86
E 71 121 99
E 71 132 102
E 71 140 92
E 71 147 95
E 71 151 97
E 71 153 100
E 71 155 107
E 72 75 93
E 72 77 102
E 72 80 93
E 72 84 105
E 72 86 104
E 72 91 98
E 72 97 108
E 72 98 95
E 72 99 106
E 72 109 104
E 72 113 90
E 72 118 98
E 72 119 98
E 72 126 85
E 72 128 97
E 72 129 100
E 72 133 96
E 72 135 106
E 72 137 103
E 72 142 103
E 72 145 95
E 72 147 103
E 72 153 102
E 73 74 103
E 73 77 100
E 73 78 92
E 73 80 111
E 73 88 100
E 73 96 102
E 73 100 107
E 73 101 104
E 73 106 108
E 73 108 90
E 73 113 99
E 73 115 99
E 73 116 101
E 73 128 96
E 73 130 94
E 73 137 97
E 73 142 109
E 73 157 102
E 74 75 98
E 74 79 104
E 74 82 98
E 74 86 104
E 74 96 95
E 74 103 107
E 74 104 107
E 74 111 102
E 74 113 97
E 74 114 91
E 74 119 98
E 74 121 103
E 74 123 98
E 74 125 104
E 74 129 97
E 74 131 103
E 74 137 98
E 74 145 95
E 74 153 101
E 74 157 97
E 75 81 99
E 75 82 90
E 75 83 112
E 75 89 108
E 75 92 99
E 75 104 99
E 75 111 88
E 75 115 92
E 75 125 105
E 75 128 102
E 75 129 96
E 75 131 104
E 75 133 99
E 75 137 108
E 75 140 104
E 75 141 109
E 75 144 93
E 75 146 102
E 75 158 93
E 75 159 105
E 75 160 96
E 76 87 93
E 76 97 99
E 76 98 105
E 76 100 105
E 76 102 108
E 76 109 105
E 76 110 103
E 76 111 102
E 76 114 109
E 76 116 102
E 76 117 91
E 76 120 88
E 76 124 101
E 76 125 100
E 76 127 106
E 76 131 101
E 76 139 105
E 76 140 95
E 76 149 95
E 77 82 103
E 77 83 103
E 77 91 98
E 77 98 95
E 77 99 99
E 77 109 100
E 77 114 97
E 77 135 97
E 77 137 99
E 77 146 97
E 77 148 101
E 77 154 93
E 78 86 93
E 78 94 97
E 78 96 93
E 78 97 102
E 78 98 106
E 78 101 100
E 78 105 100
E 78 106 106
E 78 112 103
E 78 118 98
E 78 124 101
E 78 126 87
E 78 128 102
E 78 131 104
E 78 137 95
E 78 157 94
E 78 158 98
E 79 82 101
E 79 83 89
E 79 87 96
E 79 96 98
E 79 101 104
E 79 106 89
E 79 107 103
E 79 112 96
E 79 114 98
E 79 124 96
E 79 126 92
E 79 130 107
E 79 131 91
E 79 153 99
E 79 156 97
E 80 81 98
E 80 83 100
E 80 85 98
E 80 89 95
E 80 92 103
E 80 93 99
E 80 101 112
E 80 102 104
E 80 113 99
E 80 115 98
E 80 122 94
E 80 124 109
E 80 127 97
E 80 128 101
E 80 130 106
E 80 132 103
E 80 136 93
E 80 138 107
E 80 143 102
E 80 157 93
E 80 159 106
E 81 88 95
E 81 89 101
E 81 91 109
E 81 93 97
E 81 98 100
E 81 99 96
E 81 100 96
E 81 101 98
E 81 113 99
E 81 117 99
E 81 129 103
E 81 130 103
E 81 139 103
E 81 157 97
E 82 84 105
E 82 86 94
E 82 87 98
E 82 95 100
E 82 96 91
E 82 98 103
E 82 104 102
E 82 107 113
E 82 116 103
E 82 119 94
E 82 122 99
E 82 123 103
E 82 127 97
E 82 133 96
E 82 134 100
E 82 140 101
E 82 147 93
E 82 154 100
E 82 155 93
E 83 86 106
E 83 94 104
E 83 98 95
E 83 99 101
E 83 109 97
E 83 112 106
E 83 113 101
E 83 120 97
E 83 121 99
E 83 122 96
E 83 128 105
E 83 143 106
E 83 147 95
E 83 149 103
E 83 150 91
E 83 157 99
E 83 159 95
E 84 85 101
E 84 91 109
E 84 93 95
E 84 94 100
E 84 97 92
E 84 112 94
E 84 117 99
E 84 119 97
E 84 120 97
E 84 123 90
E 84 127 103
E 84 128 100
E 84 136 101
E 84 142 108
E 84 150 104
E 84 155 101
E 85 91 100
E 85 92 103
E 85 98 98
E 85 103 98
E 85 104 102
E 85 106 89
E 85 112 99
E 85 114 104
E 85 119 88
E 85 130 103
E 85 134 101
E 85 137 98
E 85 140 99
E 85 149 96
E 85 152 93
E 86 91 101
E 86 95 99
E 86 105 96
E 86 116 101
E 86 119 105
E 86 120 105
E 86 121 97
E 86 123 91
E 86 133 101
E 86 141 108
E 86 144 106
E 86 146 108
E 86 147 101
E 86 151 98
E 86 154 108
E 86 155 102
E 86 157 92
E 86 159 98
E 87 90 102
E 87 96 102
E 87 98 101
E 87 102 101
E 87 110 90
E 87 115 110
E 87 125 92
E 87 131 103
E 87 139 106
E 87 145 91
E 87 147 103
E 87 153 104
E 87 158 100
E 88 89 110
E 88 91 95
E 88 92 103
E 88 97 97
E 88 103 96
E 88 104 105
E 88 109 100
E 88 112 100
E 88 116 95
E 88 118 89
E 88 122 99
E 88 123 103
E 88 134 100
E 88 138 97
E 88 141 94
E 88 142 102
E 88 144 96
E 88 154 88
E 89 91 94
E 89 94 100
E 89 111 92
E 89 115 109
E 89 118 98
E 89 119 96
E 89 124 102
E 89 134 100
E 89 135 95
E 89 140 109
E 89 152 101
E 89 154 97
E 89 158 88
E 90 91 105
E 90 97 98
E 90 99 99
E 90 100 101
E 90 107 96
E 90 111 101
E 90 113 92
E 90 114 95
E 90 124 95
E 90 125 96
E 90 139 105
E 90 140 105
E 90 144 103
E 90 147 100
E 90 153 102
E 90 155 111
E 91 93 94
E 91 95 90
E 91 96 95
E 91 101 94
E 91 103 101
E 91 105 96
E 91 112 92
E 91 123 96
E 91 131 100
E 91 143 97
E 91 153 107
E 91 158 107
E 92 93 100
E 92 96 99
E 92 107 101
E 92 118 101
E 92 122 94
E 92 135 101
E 92 138 104
E 92 140 105
E 92 148 101
E 93 97 99
E 93 101 94
E 93 105 105
E 93 117 101
E 93 118 95
E 93 122 101
E 93 127 100
E 93 130 95
E 93 133 100
E 93 135 93
E 93 140 104
E 93 141 93
E 93 142 101
E 93 143 86
E 93 147 108
E 93 149 97
E 93 150 86
E 94 98 108
E 94 107 100
E 94 112 105
E 94 118 99
E 94 127 100
E 94 132 108
E 94 133 98
E 94 136 91
E 94 137 99
E 94 138 98
E 94 142 102
E 94 153 95
E 94 155 96
E 94 157 102
E 94 158 101
E 94 159 98
E 95 97 95
E 95 98 98
E 95 108 94
E 95 118 100
E 95 127 101
E 95 129 96
E 95 140 99
E 95 141 108
E 95 142 95
E 95 148 99
E 95 150 97
E 95 153 104
E 95 158 97
E 96 98 102
E 96 100 101
E 96 103 104
E 96 106 95
E 96 110 98
E 96 132 104
E 96 136 102
E 96 140 108
E 96 142 95
E 96 145 100
E 96 147 97
E 96 149 102
E 96 156 91
E 96 160 104
E 97 110 94
E 97 111 92
E 97 112 97
E 97 113 99
E 97 117 94
E 97 125 96
E 97 137 98
E 97 139 103
E 97 140 103
E 97 142 108
E 97 146 104
E 97 149 106
E 97 153 97
E 97 158 101
E 97 159 104
E 98 102 110
E 98 103 101
E 98 113 101
E 98 119 102
E 98 123 104
E 98 124 97
E 98 128 89
E 98 137 101
E 98 143 99
E 98 147 94
E 98 148 87
E 98 149 100
E 99 100 98
E 99 110 105
E 99 112 104
E 99 116 99
E 99 122 96
E 99 123 91
E 99 124 98
E 99 129 99
E 99 135 95
E 99 145 101
E 99 146 94
E 99 154 98
E 99 157 100
E 100 103 98
E 100 106 94
E 100 107 106
E 100 119 97
E 100 125 92
E 100 128 97
E 100 133 92
E 100 135 96
E 100 139 92
E 100 142 93
E 100 143 96
E 100 147 97
E 100 152 95
E 100 158 92
E 101 104 103
E 101 112 90
E 101 115 97
E 101 128 106
E 101 129 104
E 101 131 98
E 101 136 102
E 101 143 102
E 101 147 100
E 101 150 95
E 101 152 99
E 101 154 94
E 101 155 96
E 101 159 104
E 102 105 110
E 102 108 97
E 102 109 97
E 102 110 106
E 102 112 103
E 102 121 89
E 102 123 102
E 102 127 104
E 102 130 94
E 102 131 99
E 102 138 103
E 102 139 93
E 102 143 103
E 102 150 92
E 102 159 103
E 103 106 105
E 103 114 105
E 103 131 102
E 103 136 109
E 103 146 97
E 103 152 105
E 103 155 97
E 103 160 98
E 104 109 96
E 104 111 102
E 104 116 100
E 104 123 94
E 104 129 98
E 104 130 89
E 104 133 97
E 104 135 107
E 104 136 104
E 104 147 100
E 104 155 95
E 105 121 106
E 105 122 93
E 105 139 99
E 105 145 98
E 106 108 98
E 106 125 102
E 106 129 93
E 106 133 99
E 106 144 106
E 106 147 107
E 106 150 92
E 106 158 98
E 107 115 102
E 107 116 94
E 107 123 94
E 107 127 104
E 107 128 107
E 107 137 96
E 107 140 104
E 107 141 100
E 107 148 90
E 107 157 101
E 108 122 103
E 108 124 95
E 108 128 109
E 108 134 103
E 108 139 112
E 108 142 96
E 108 149 99
E 108 157 104
E 109 111 108
E 109 114 98
E 109 115 103
E 109 116 97
E 109 122 101
E 109 124 96
E 109 128 98
E 109 132 109
E 109 134 99
E 109 136 100
E 109 160 102
E 110 112 98
E 110 126 106
E 110 127 93
E 110 129 96
E 110 133 103
E 110 141 101
E 110 148 95
E 110 153 108
E 111 117 89
E 111 122 98
E 111 124 105
E 111 125 97
E 111 128 101
E 111 130 97
E 111 132 105
E 111 136 102
E 111 147 92
E 111 149 90
E 111 151 95
E 112 113 102
E 112 120 101
E 112 137 92
E 112 139 98
E 112 145 94
E 112 147 93
E 112 154 101
E 112 156 103
E 112 160 105
E 113 121 98
E 113 128 102
E 113 129 102
E 113 132 97
E 113 133 100
E 113 138 101
E 113 139 95
E 113 145 105
E 113 146 93
E 113 147 107
E 113 154 104
E 113 159 92
E 114 115 98
E 114 121 94
E 114 131 93
E 114 136 102
E 114 149 99
E 114 155 107
E 115 116 88
E 115 120 98
E 115 123 107
E 115 125 105
E 115 126 92
E 115 127 96
E 115 132 97
E 115 135 99
E 115 136 104
E 115 137 92
E 115 141 92
E 115 143 97
E 115 150 93
E 116 119 101
E 116 120 102
E 116 126 94
E 116 127 110
E 116 145 113
E 116 149 96
E 116 150 95
E 116 155 97
E 116 160 97
E 117 128 104
E 117 129 92
E 117 130 102
E 117 132 101
E 117 140 94
E 117 147 100
E 117 148 100
E 117 149 100
E 117 153 107
E 117 155 93
E 118 121 99
E 118 127 100
E 118 131 97
E 118 132 98
E 118 133 100
E 118 136 94
E 118 150 105
E 118 151 101
E 118 152 97
E 118 158 95
E 118 160 102
E 119 124 87
E 119 134 104
E 119 143 103
E 119 146 98
E 119 151 99
E 119 153 99
E 119 156 89
E 119 158 102
E 119 159 104
E 120 121 100
E 120 125 111
E 120 127 98
E 120 128 96
E 120 131 100
E 120 139 100
E 120 140 96
E 120 142 98
E 120 143 95
E 120 145 101
E 121 128 98
E 121 139 101
E 121 140 99
E 121 148 92
E 122 123 103
E 122 134 90
E 122 136 100
E 122 141 104
E 122 145 103
E 122 146 95
E 122 149 97
E 122 150 100
E 122 151 98
E 122 159 108
E 123 124 101
E 123 125 100
E 123 131 104
E 123 150 97
E 124 126 103
E 124 127 106
E 124 129 91
E 124 139 111
E 124 140 95
E 124 141 108
E 124 146 99
E 124 149 103
E 124 152 96
E 124 156 106
E 125 127 98
E 125 129 107
E 125 132 100
E 125 134 95
E 125 151 106
E 125 154 102
E 126 135 96
E 126 138 102
E 126 143 94
E 126 145 105
E 126 152 98
E 126 155 102
E 126 159 104
E 126 160 103
E 127 130 98
E 127 132 100
E 127 139 103
E 127 151 92
E 127 152 102
E 128 130 98
E 128 135 89
E 128 138 100
E 128 144 96
E 128 147 99
E 128 156 95
E 128 159 107
E 129 133 99
E 129 134 103
E 129 138 103
E 129 145 95
E 130 131 106
E 130 132 108
E 130 134 96
E 130 137 104
E 130 143 98
E 130 145 97
E 130 155 109
E 130 157 102
E 131 141 102
E 131 142 97
E 131 145 107
E 131 148 87
E 131 150 101
E 131 151 97
E 131 154 101
E 131 156 97
E 131 157 90
E 131 158 92
E 132 135 97
E 132 137 98
E 132 142 94
E 132 143 96
E 132 146 93
E 132 148 95
E 132 150 91
E 132 152 99
E 132 156 109
E 133 134 97
E 133 140 97
E 133 144 106
E 133 155 88
E 133 156 106
E 133 159 93
E 133 160 95
E 134 137 99
E 134 144 105
E 134 152 103
E 134 153 100
E 134 158 101
E 134 159 96
E 135 137 88
E 135 146 107
E 135 150 99
E 135 160 100
E 136 140 102
E 136 146 97
E 136 148 101
E 137 143 106
E 137 147 99
E 137 155 106
E 138 140 93
E 138 148 93
E 138 150 98
E 138 159 104
E 139 142 101
E 139 157 98
E 139 159 105
E 140 150 92
E 140 151 94
E 140 155 103
E 140 158 94
E 141 142 91
E 141 145 108
E 141 151 111
E 141 153 101
E 141 156 98
E 141 157 102
E 142 144 104
E 142 147 105
E 142 152 104
E 142 153 97
E 142 156 110
E 143 145 100
E 143 146 96
E 143 153 104
E 143 155 100
E 143 158 98
E 143 160 93
E 144 149 101
E 145 148 97
E 145 150 100
E 145 152 95
E 145 156 98
E 146 156 106
E 146 158 103
E 146 160 99
E 147 149 106
E 147 155 91
E 147 156 98
E 147 157 97
E 148 151 109
E 148 154 99
E 148 160 101
E 149 151 97
E 149 158 95
E 149 159 95
E 150 152 107
E 150 155 97
E 150 160 105
E 151 157 98
E 152 156 94
E 152 159 93
E 153 160 92
E 154 156 97
E 154 160 94
E 155 156 103
E 155 160 98
E 156 160 106
END

SECTION Terminals
Terminals 40
T 1
T 2
T 3
T 4
T 5
T 6
T 7
T 8
T 9
T 10
T 11
T 12
T 13
T 14
T 15
T 16
T 17
T 18
T 19
T 20
T 21
T 22
T 23
T 24
T 25
T 26
T 27
T 28
T 29
T 30
T 31
T 32
T 33
T 34
T 35
T 36
T 37
T 38
T 39
T 40
END

EOF
